8
10000 54 24 11 39 43 98 10
54 10000 42 62 45 45 23 11
24 42 10000 35 51 12 14 34
11 62 35 10000 38 56 94 99
39 45 51 38 10000 57 11 13
43 45 12 56 57 10000 23 44 
98 23 14 94 11 23 10000 33
10 11 34 99 13 44 33 10000

